p tw 44 114
5 10
10 12
10 15
14 18
14 15
1 6
1 2
1 9
1 10
1 18
1 16
1 12
6 14
6 9
6 12
6 18
9 20
2 10
2 6
2 16
2 11
12 13
12 17
12 19
18 20
8 12
8 15
8 16
8 10
8 17
8 13
8 20
4 8
4 5
15 43
42 44
42 43
24 38
24 40
24 27
24 43
24 25
24 29
25 38
25 30
29 36
29 34
21 40
21 31
21 32
21 39
21 35
21 23
21 34
33 40
28 30
28 33
28 36
13 16
13 19
41 42
41 44
41 43
17 42
17 44
17 18
17 19
32 36
32 33
34 39
22 23
22 27
22 34
22 31
22 37
22 40
22 25
22 36
22 24
22 39
27 33
27 44
27 35
27 31
7 12
7 16
7 17
3 4
3 12
3 20
3 19
3 6
16 20
16 41
16 19
31 38
11 13
11 18
43 44
26 28
26 31
26 40
26 30
23 29
23 34
23 26
36 39
36 40
36 42
36 37
30 37
30 41
30 34
30 31
